\ This file has been generated by DOcplex
\ ENCODING=ISO-8859-1
\Problem name: Qrandom15542_6_1.lp

Minimize
 obj: - 785 x0 - 782 x1 - 401 x2 - 4 x3 - 400 x4 + 784 x5 + [ 784 x0^2
      + 1586 x0*x1 + 778 x0*x2 + 2 x0*x3 + 798 x0*x4 - 1578 x0*x5 + 784 x1^2
      + 782 x1*x2 - 4 x1*x3 + 764 x1*x4 - 1548 x1*x5 + 196 x2^2 - 6 x2*x3
      + 388 x2*x4 - 788 x2*x5 - 18 x3*x4 - 14 x3*x5 + 196 x4^2 - 788 x4*x5
      + 784 x5^2 ]/2 + 392
Subject To

Bounds
 0 <= x0 <= 1
 0 <= x1 <= 1
 0 <= x2 <= 1
 0 <= x3 <= 1
 0 <= x4 <= 1
 0 <= x5 <= 1

Binaries
 x0 x1 x2 x3 x4 x5
End
